NAME : C2_2_1
TYPE : VRPSPD
DIMENSION : 201
VEHICLES : 9
CAPACITY : 700
DISTANCE : 999999
SCALE : 1000
EDGE_WEIGHT_TYPE : EXACT_2D
NODE_COORD_SECTION
1 70 70
2 38 105
3 100 5
4 111 78
5 96 62
6 122 11
7 94 18
8 60 89
9 67 123
10 99 53
11 26 24
12 93 61
13 27 32
14 25 31
15 98 36
16 101 68
17 49 48
18 56 95
19 14 107
20 98 46
21 131 4
22 94 89
23 70 113
24 94 59
25 64 59
26 112 3
27 20 108
28 10 118
29 76 65
30 103 12
31 44 62
32 96 138
33 27 44
34 21 28
35 26 91
36 98 75
37 69 48
38 19 116
39 60 111
40 54 102
41 63 103
42 91 91
43 77 15
44 77 117
45 115 41
46 12 33
47 44 82
48 117 55
49 116 10
50 57 77
51 29 36
52 90 91
53 62 73
54 6 121
55 105 49
56 28 115
57 4 137
58 11 100
59 67 84
60 23 22
61 41 64
62 56 56
63 80 40
64 60 66
65 16 90
66 104 82
67 64 78
68 47 36
69 46 80
70 86 124
71 48 72
72 121 9
73 60 52
74 25 46
75 26 15
76 98 116
77 66 131
78 15 30
79 66 117
80 111 70
81 123 19
82 17 18
83 57 87
84 102 33
85 7 113
86 37 115
87 17 25
88 83 105
89 51 115
90 96 55
91 112 2
92 116 23
93 57 70
94 15 23
95 45 68
96 19 41
97 38 16
98 81 135
99 62 128
100 49 70
101 24 19
102 119 20
103 62 125
104 29 10
105 13 80
106 65 73
107 109 25
108 91 71
109 47 57
110 9 42
111 96 23
112 26 102
113 4 15
114 3 98
115 35 88
116 18 107
117 95 68
118 58 85
119 11 23
120 61 107
121 3 17
122 26 104
123 74 56
124 24 105
125 30 106
126 4 33
127 106 0
128 120 10
129 106 5
130 30 58
131 9 9
132 7 92
133 50 29
134 46 52
135 70 110
136 37 111
137 75 64
138 20 93
139 94 1
140 41 12
141 20 109
142 28 14
143 87 63
144 101 4
145 80 22
146 117 10
147 103 33
148 104 51
149 103 19
150 7 52
151 73 119
152 79 128
153 10 50
154 26 23
155 95 103
156 101 59
157 113 67
158 25 94
159 120 20
160 105 26
161 59 77
162 116 34
163 45 71
164 86 109
165 15 96
166 64 88
167 60 115
168 63 100
169 94 104
170 8 102
171 64 89
172 61 66
173 95 121
174 47 63
175 19 96
176 103 55
177 36 94
178 75 103
179 65 80
180 94 56
181 18 123
182 92 123
183 12 31
184 106 81
185 98 28
186 14 133
187 101 32
188 25 66
189 78 61
190 123 64
191 126 20
192 72 117
193 10 105
194 128 0
195 130 16
196 114 63
197 80 63
198 113 36
199 15 94
200 129 77
201 85 85
PICKUP_AND_DELIVERY_SECTION
1 0 0 10000000 0 0 0
2 0 0 10000000 0 30 20
3 0 0 10000000 0 10 20
4 0 0 10000000 0 10 10
5 0 0 10000000 0 30 10
6 0 0 10000000 0 20 30
7 0 0 10000000 0 40 30
8 0 0 10000000 0 50 10
9 0 0 10000000 0 50 20
10 0 0 10000000 0 50 20
11 0 0 10000000 0 20 20
12 0 0 10000000 0 30 10
13 0 0 10000000 0 20 20
14 0 0 10000000 0 20 20
15 0 0 10000000 0 30 10
16 0 0 10000000 0 30 10
17 0 0 10000000 0 10 10
18 0 0 10000000 0 40 10
19 0 0 10000000 0 20 20
20 0 0 10000000 0 20 20
21 0 0 10000000 0 30 40
22 0 0 10000000 0 40 20
23 0 0 10000000 0 40 30
24 0 0 10000000 0 30 30
25 0 0 10000000 0 20 10
26 0 0 10000000 0 10 10
27 0 0 10000000 0 10 10
28 0 0 10000000 0 30 20
29 0 0 10000000 0 50 40
30 0 0 10000000 0 40 20
31 0 0 10000000 0 10 30
32 0 0 10000000 0 20 10
33 0 0 10000000 0 10 20
34 0 0 10000000 0 20 40
35 0 0 10000000 0 50 10
36 0 0 10000000 0 40 10
37 0 0 10000000 0 50 20
38 0 0 10000000 0 10 10
39 0 0 10000000 0 40 10
40 0 0 10000000 0 20 20
41 0 0 10000000 0 50 20
42 0 0 10000000 0 40 10
43 0 0 10000000 0 30 10
44 0 0 10000000 0 20 30
45 0 0 10000000 0 10 20
46 0 0 10000000 0 10 10
47 0 0 10000000 0 40 20
48 0 0 10000000 0 50 20
49 0 0 10000000 0 30 20
50 0 0 10000000 0 30 20
51 0 0 10000000 0 20 20
52 0 0 10000000 0 10 10
53 0 0 10000000 0 10 20
54 0 0 10000000 0 20 20
55 0 0 10000000 0 10 10
56 0 0 10000000 0 20 10
57 0 0 10000000 0 30 30
58 0 0 10000000 0 50 20
59 0 0 10000000 0 40 30
60 0 0 10000000 0 10 20
61 0 0 10000000 0 50 20
62 0 0 10000000 0 20 40
63 0 0 10000000 0 10 20
64 0 0 10000000 0 40 30
65 0 0 10000000 0 40 20
66 0 0 10000000 0 30 30
67 0 0 10000000 0 10 10
68 0 0 10000000 0 30 20
69 0 0 10000000 0 10 20
70 0 0 10000000 0 30 20
71 0 0 10000000 0 10 20
72 0 0 10000000 0 30 10
73 0 0 10000000 0 40 20
74 0 0 10000000 0 50 20
75 0 0 10000000 0 50 20
76 0 0 10000000 0 30 30
77 0 0 10000000 0 50 10
78 0 0 10000000 0 50 20
79 0 0 10000000 0 50 30
80 0 0 10000000 0 20 20
81 0 0 10000000 0 40 20
82 0 0 10000000 0 50 30
83 0 0 10000000 0 10 10
84 0 0 10000000 0 30 30
85 0 0 10000000 0 40 10
86 0 0 10000000 0 20 20
87 0 0 10000000 0 30 10
88 0 0 10000000 0 20 30
89 0 0 10000000 0 40 10
90 0 0 10000000 0 40 20
91 0 0 10000000 0 40 20
92 0 0 10000000 0 50 20
93 0 0 10000000 0 20 10
94 0 0 10000000 0 40 30
95 0 0 10000000 0 10 30
96 0 0 10000000 0 30 10
97 0 0 10000000 0 40 10
98 0 0 10000000 0 30 20
99 0 0 10000000 0 40 20
100 0 0 10000000 0 30 20
101 0 0 10000000 0 10 10
102 0 0 10000000 0 40 10
103 0 0 10000000 0 40 30
104 0 0 10000000 0 20 30
105 0 0 10000000 0 10 30
106 0 0 10000000 0 10 10
107 0 0 10000000 0 20 10
108 0 0 10000000 0 40 10
109 0 0 10000000 0 50 30
110 0 0 10000000 0 30 20
111 0 0 10000000 0 10 30
112 0 0 10000000 0 20 40
113 0 0 10000000 0 20 20
114 0 0 10000000 0 50 10
115 0 0 10000000 0 50 20
116 0 0 10000000 0 10 10
117 0 0 10000000 0 10 20
118 0 0 10000000 0 40 10
119 0 0 10000000 0 50 10
120 0 0 10000000 0 50 10
121 0 0 10000000 0 20 10
122 0 0 10000000 0 10 10
123 0 0 10000000 0 30 10
124 0 0 10000000 0 20 10
125 0 0 10000000 0 30 30
126 0 0 10000000 0 40 20
127 0 0 10000000 0 50 10
128 0 0 10000000 0 50 20
129 0 0 10000000 0 10 30
130 0 0 10000000 0 20 20
131 0 0 10000000 0 10 10
132 0 0 10000000 0 30 20
133 0 0 10000000 0 50 10
134 0 0 10000000 0 10 10
135 0 0 10000000 0 50 30
136 0 0 10000000 0 10 20
137 0 0 10000000 0 50 20
138 0 0 10000000 0 40 10
139 0 0 10000000 0 50 10
140 0 0 10000000 0 30 10
141 0 0 10000000 0 40 10
142 0 0 10000000 0 10 20
143 0 0 10000000 0 40 30
144 0 0 10000000 0 30 10
145 0 0 10000000 0 20 10
146 0 0 10000000 0 20 10
147 0 0 10000000 0 30 10
148 0 0 10000000 0 50 20
149 0 0 10000000 0 20 30
150 0 0 10000000 0 20 20
151 0 0 10000000 0 50 30
152 0 0 10000000 0 20 30
153 0 0 10000000 0 50 20
154 0 0 10000000 0 40 50
155 0 0 10000000 0 30 20
156 0 0 10000000 0 50 30
157 0 0 10000000 0 10 20
158 0 0 10000000 0 20 10
159 0 0 10000000 0 30 20
160 0 0 10000000 0 40 30
161 0 0 10000000 0 50 20
162 0 0 10000000 0 10 20
163 0 0 10000000 0 10 10
164 0 0 10000000 0 40 10
165 0 0 10000000 0 50 10
166 0 0 10000000 0 30 30
167 0 0 10000000 0 40 20
168 0 0 10000000 0 20 10
169 0 0 10000000 0 40 30
170 0 0 10000000 0 10 10
171 0 0 10000000 0 50 10
172 0 0 10000000 0 30 10
173 0 0 10000000 0 40 10
174 0 0 10000000 0 40 30
175 0 0 10000000 0 40 10
176 0 0 10000000 0 20 20
177 0 0 10000000 0 40 30
178 0 0 10000000 0 50 20
179 0 0 10000000 0 20 10
180 0 0 10000000 0 50 30
181 0 0 10000000 0 20 20
182 0 0 10000000 0 40 10
183 0 0 10000000 0 10 20
184 0 0 10000000 0 50 20
185 0 0 10000000 0 40 10
186 0 0 10000000 0 10 30
187 0 0 10000000 0 10 20
188 0 0 10000000 0 10 10
189 0 0 10000000 0 40 40
190 0 0 10000000 0 30 20
191 0 0 10000000 0 50 20
192 0 0 10000000 0 30 10
193 0 0 10000000 0 40 20
194 0 0 10000000 0 10 10
195 0 0 10000000 0 40 30
196 0 0 10000000 0 20 10
197 0 0 10000000 0 40 20
198 0 0 10000000 0 40 10
199 0 0 10000000 0 30 30
200 0 0 10000000 0 20 10
201 0 0 10000000 0 10 20
DEPOT_SECTION
1 
-1
EOF
